10
0 9 3 7 9 4 4 7 10 5
1 0 6 9 9 6 9 9 4 10
1 5 0 6 9 1 8 10 6 2
2 6 2 0 7 5 2 5 2 4
7 7 6 6 0 8 7 8 4 9
5 9 6 2 7 0 3 5 4 8
4 7 9 7 4 4 0 4 8 6
8 6 8 4 4 8 9 0 7 10
6 7 4 4 2 1 3 8 0 4
4 8 8 1 4 1 6 5 7 0
